Route #1: 1 47 31 46 44 43 23 4 35 38 33 1
Route #2: 1 15 2 29 16 12 28 41 30 32 1
Route #3: 1 25 34 3 42 7 8 22 39 1
Route #4: 1 36 24 14 17 40 6 1
Route #5: 1 27 5 48 21 9 11 1
Route #6: 1 37 26 45 20 19 10 1
Route #7: 1 13 18 1
cost 2743.3521384010046